c 30 promenne 100 klauzuli
c weights -2 9 -9 6 -6 -4 4 5 -5 -4 7 3 -2 -7 -6 2 2 -8 7 -3 4 1 -2 4 0 3 -9 -3 -5 1
p cnf 30 100
1 2 3 -4 -5 -6 -7 -8 11 -12 -16 -17 18 -19 -20 -22 23 24 25 29 -30 0
1 2 -3 -4 5 7 -8 -11 -13 -16 17 20 22 -23 -26 -28 29 30 0
2 3 -4 -5 -6 12 13 -14 15 16 -18 19 21 -22 24 25 -28 0
-2 -3 -4 -5 6 10 -12 -13 -14 -15 -16 -17 -19 -22 24 -25 -26 27 -28 -29 -30 0
-2 5 -6 8 -9 11 -15 -16 -17 18 22 24 25 26 -27 -28 -29 30 0
2 -4 5 7 -12 14 15 16 -17 -19 -20 22 -25 26 -27 -28 -29 0
-1 -2 -3 -4 -8 -9 -10 14 -15 -16 -17 18 -19 -20 -21 24 25 27 -28 -29 0
-3 -6 -7 8 9 11 12 15 16 -17 -18 19 21 -23 -24 25 -26 27 28 29 0
-1 -2 -4 -6 7 8 -10 11 -12 15 16 -18 -19 -20 -21 22 25 -29 -30 0
-1 -2 3 -5 -7 8 10 -11 14 15 16 -20 22 23 -24 -26 -28 0
-2 -3 -4 5 6 -7 -8 -9 14 -15 -17 -18 19 20 -21 -22 -25 -26 27 30 0
-2 -4 5 -7 -8 9 10 -11 -12 -13 15 -17 -18 -19 20 -21 -22 -23 24 -25 28 -29 -30 0
-2 -3 6 8 10 -11 -12 -13 14 15 16 -17 18 -19 -20 21 22 -23 24 25 26 -28 29 0
4 6 -7 -8 11 12 14 15 -18 -19 -20 -21 22 -24 -28 -29 30 0
1 2 -3 4 5 6 8 -10 -11 12 -13 14 16 -17 -18 19 21 -22 -23 27 29 -30 0
-1 2 4 5 7 9 -10 11 -12 14 17 -18 19 -22 -23 24 27 -28 -30 0
1 -2 -4 6 9 -11 12 13 -14 16 17 18 -21 24 -25 28 0
1 -4 -6 8 -9 -10 11 15 -16 -18 -19 20 21 22 -24 26 28 0
-1 -3 4 -5 8 -9 -10 12 -14 15 16 17 -20 -21 -22 -23 24 26 -27 28 -30 0
1 2 -3 -4 -5 -6 8 10 -11 12 14 16 17 19 -20 -21 -23 -24 -25 26 27 29 0
1 -2 -3 4 -5 6 -7 9 10 -11 12 -13 -14 15 -16 18 19 20 22 -24 -26 -27 28 -29 -30 0
-1 -3 4 5 -6 -7 8 -9 10 -11 13 -14 -16 17 18 19 22 24 25 26 28 0
2 -4 -5 -6 -8 9 10 11 12 -14 15 16 -20 -21 22 24 -25 -27 28 -29 -30 0
-2 3 4 -5 -6 7 -9 -12 -13 -14 -17 -21 -25 -28 29 -30 0
1 3 -4 -5 8 9 -11 -13 14 16 -17 -18 21 -23 -25 -26 29 0
-1 -4 5 -6 7 -8 10 -11 13 16 17 -18 19 20 21 22 -25 -26 -28 -30 0
1 3 -4 -5 6 -7 -8 9 -10 12 -13 -14 16 19 20 21 22 24 26 -29 -30 0
1 2 -5 6 8 9 10 -12 13 -14 15 17 18 -19 21 22 24 -25 26 27 -29 0
1 -2 -3 -5 6 7 -9 12 -14 15 -20 22 -23 -24 -25 26 27 29 0
-1 -2 -3 -4 5 6 8 -10 12 -14 -17 -20 21 -23 25 -26 28 -30 0
1 -7 -9 10 11 12 -15 -16 17 18 19 20 -21 -22 23 -25 -27 30 0
-1 2 5 6 -8 11 14 -15 -16 18 19 -20 21 -22 -23 25 26 -29 30 0
-1 -3 -5 -7 8 -9 10 -11 12 13 14 -15 17 -18 -22 -23 -24 -25 29 30 0
1 -3 4 7 -9 -13 14 -15 -17 19 20 21 24 -25 -26 27 28 30 0
-3 -4 7 -8 11 -13 15 16 19 -21 -22 -24 -25 -26 -27 -29 0
1 2 4 -6 -7 10 11 -12 13 -14 16 -17 18 21 22 23 -25 26 -27 -28 -30 0
-1 2 -4 5 6 7 -8 -10 11 12 14 -19 20 -22 -23 -26 -27 -28 29 30 0
-1 4 6 8 9 -11 12 17 19 -21 -22 -23 24 26 27 28 29 0
1 -2 5 -7 -12 13 14 -15 16 17 19 20 23 25 -26 28 0
1 3 4 -5 -6 8 10 11 -12 -13 14 -15 -17 -18 19 -21 23 -25 -28 -29 30 0
-1 2 -3 5 -7 8 9 -11 12 13 -16 -18 19 22 23 -24 -25 -26 -28 -29 0
5 7 9 11 -15 16 -17 18 20 22 23 24 -25 26 -28 0
1 2 7 -8 -9 -11 12 -13 14 -15 16 -17 -18 -19 20 21 -22 25 -26 27 28 0
-1 -3 5 7 9 -11 -15 -16 17 -19 -20 21 22 -25 27 30 0
2 5 -6 7 -8 -9 10 -11 12 -13 14 -15 16 -18 -19 -20 -23 -24 -25 26 28 29 0
3 -4 -5 -6 -7 9 -10 -11 -12 -13 -14 15 -16 -17 18 -19 -20 -23 25 -26 -27 -28 -29 30 0
1 -2 -3 -4 6 -8 9 10 11 13 -14 -15 -19 -21 22 23 25 27 0
1 -3 5 7 -8 10 -11 12 14 15 16 -18 -19 -21 -22 24 25 -27 29 -30 0
3 4 -7 -8 9 10 -11 13 -14 -15 -16 17 19 -20 -22 23 24 -25 26 27 28 29 -30 0
-1 3 -5 -6 9 11 12 14 15 16 17 21 -22 23 -24 26 -27 0
2 3 -4 5 -7 8 9 -10 -11 12 13 15 16 18 19 -20 -24 -25 -26 27 -28 29 30 0
1 -2 3 -6 -7 9 10 13 14 -16 17 18 -19 20 -21 22 -24 26 27 28 29 30 0
-1 2 -3 5 -6 -7 -8 -14 15 -16 -17 -18 -20 -21 -22 -23 -25 26 28 30 0
2 -3 6 -9 -11 12 13 14 17 -18 -19 -20 21 -22 -25 -27 28 -29 -30 0
-1 2 -3 4 5 -6 7 9 10 -11 13 14 -15 17 18 19 20 -21 23 24 -25 -26 -28 -29 30 0
-1 2 3 5 -6 -9 10 -16 -19 -20 -23 24 -25 26 27 -28 -30 0
1 -2 4 5 -7 9 10 11 13 15 17 18 19 -21 24 25 -26 27 -28 0
1 -2 -3 -5 -6 -8 9 -13 -14 -18 19 21 23 24 25 -26 27 28 29 0
1 3 -4 -5 6 -7 -9 -10 11 12 -13 -15 -16 19 20 -21 -24 27 -28 29 30 0
2 -4 -6 7 -8 11 13 -14 -15 -16 17 -19 21 22 24 -25 -27 -28 29 -30 0
1 -3 -4 -6 -7 -8 9 10 -12 -13 15 16 17 18 19 -21 22 23 -25 -26 27 -28 29 0
-2 3 4 -5 6 -7 -9 11 -12 -13 -14 15 16 17 -22 -23 -25 26 27 -28 -29 0
-1 2 3 4 -5 6 -7 -10 11 -13 -14 -15 18 -20 21 22 23 24 26 27 -29 -30 0
1 2 3 6 -7 -8 -9 10 -11 12 -14 -15 16 -17 18 20 -21 23 -25 -26 28 -29 0
-2 -5 6 -7 -8 -10 13 14 15 -16 17 -19 20 21 23 -24 25 26 -28 30 0
2 3 4 -5 6 7 -8 9 10 -11 13 14 -18 19 -23 -24 25 26 -27 -29 -30 0
1 2 4 7 -8 -9 13 -14 -17 -18 -20 -21 -22 26 -27 29 30 0
-1 -3 -4 6 7 -8 -9 -10 -11 12 -14 -15 -17 -18 -19 -20 21 22 -23 24 -25 -26 -28 -30 0
-1 2 4 -7 9 10 -13 -14 16 17 18 19 20 -21 26 -27 28 30 0
-2 -3 4 -5 6 -8 -9 10 12 13 16 -17 18 20 22 -24 -25 -27 -28 -29 30 0
-1 2 -4 5 7 -9 -10 11 -12 -13 -15 -16 -17 -18 21 22 25 -26 27 0
-1 2 3 8 9 -10 -11 -13 -16 -17 -23 -25 -26 -27 -28 -29 0
1 -2 -3 -4 5 -6 7 8 10 11 12 -13 -14 -15 -16 -17 18 19 -20 22 23 -24 25 26 27 -28 -29 -30 0
-2 4 5 -6 7 -9 10 11 -12 13 14 15 16 17 -18 19 -20 -21 -22 25 -26 27 29 0
-1 2 -3 4 6 7 -8 -9 -11 12 13 15 17 -18 -20 -21 22 23 -24 25 -26 27 30 0
1 3 -4 -5 -8 9 10 -14 16 18 -19 -20 22 -25 -26 27 -28 -29 0
-2 3 5 -8 -9 10 11 -12 -13 14 -15 17 19 -20 -22 23 24 26 -28 30 0
-2 -4 6 -7 9 10 11 -12 14 15 -16 -18 -19 -24 25 -26 -27 -28 30 0
1 2 -6 7 8 9 11 -12 -13 -14 -16 -17 19 20 -21 -23 24 -27 -30 0
2 4 5 6 -7 -8 9 10 11 -13 14 -15 16 18 -19 -20 21 -23 -24 25 28 -30 0
-1 4 7 9 12 -13 -14 16 -18 -19 -20 -21 -24 -25 28 29 0
-1 -2 3 -4 -5 -6 7 -8 10 11 -12 14 15 17 18 19 20 -22 -25 26 0
-2 -3 -4 5 -6 7 9 10 11 -12 -13 15 16 18 19 20 21 -23 24 27 28 -29 30 0
2 -5 -6 -7 -8 10 11 -12 -13 15 -16 17 -18 -19 -20 21 -23 24 -26 27 -29 30 0
1 2 -4 5 6 9 -10 -12 14 -15 16 17 18 -22 -23 -24 -26 -27 -28 29 30 0
1 2 3 4 6 -10 -11 -12 13 -14 16 -18 19 -21 -22 24 25 -27 -29 30 0
1 3 4 5 7 -8 -9 10 -11 12 -13 -14 15 -16 -17 -18 -19 -20 22 23 -24 -25 26 27 -28 29 -30 0
1 2 5 -6 7 8 -10 12 13 16 -17 19 20 -22 24 -25 -27 -30 0
2 4 -5 -6 -7 -8 -9 10 -11 13 15 -17 18 -21 22 23 -24 25 -26 28 0
4 -5 -6 7 8 9 10 -11 12 -13 18 -21 -23 24 25 -26 27 -29 0
1 2 4 5 7 -8 -9 -11 -12 -13 -15 17 -18 19 -20 21 -22 23 24 -25 -28 29 -30 0
-2 -3 5 6 7 8 10 11 16 18 -19 -20 -21 24 -25 26 -27 -29 0
1 2 -4 -5 6 -9 10 -13 -14 15 16 -20 21 22 23 -24 25 26 -28 -29 0
-3 4 -5 6 7 -8 -9 10 -12 -13 15 17 -18 -19 22 24 -25 26 -27 28 30 0
-2 -4 6 7 -8 9 -10 13 14 -15 16 -17 19 -20 21 22 -23 -25 26 27 28 29 -30 0
1 3 5 6 8 9 -11 12 -13 -14 16 -17 18 19 23 -24 -25 -27 -28 29 -30 0
-3 4 -5 6 -7 8 -11 12 -13 -14 -15 -18 -19 20 21 -22 24 25 26 27 -29 -30 0
1 2 -4 5 -6 7 -8 -11 12 16 17 -18 -20 -21 -22 23 -24 25 26 27 28 -29 0
-1 -2 3 4 -5 -7 -12 13 14 15 16 17 18 19 -20 22 23 24 -25 26 -27 -28 -29 30 0
-1 -2 3 -5 -6 8 9 -10 12 13 15 -16 -20 23 -24 26 27 -28 -30 0
